true true true
presolving:
presolving (0 rounds: 0 fast, 0 medium, 0 exhaustive):
 0 deleted vars, 0 deleted constraints, 0 added constraints, 0 tightened bounds, 0 added holes, 0 changed sides, 0 changed coefficients
 0 implications, 0 cliques
presolved problem has 57 variables (57 bin, 0 int, 0 impl, 0 cont) and 48 constraints
     48 constraints of type <linear>
transformed objective value is always integral (scale: 1)
Presolving Time: 0.00

 time | node  | left  |LP iter|LP it/n|mem/heur|mdpt |vars |cons |rows |cuts |sepa|confs|strbr|  dualbound   | primalbound  |  gap   | compl. 
p 0.0s|     1 |     0 |     0 |     - |shiftand|   0 |  57 |  48 |  48 |   0 |  0 |   0 |   0 |      --      | 9.000000e+00 |    Inf | unknown
 time | node  | left  |LP iter|LP it/n|mem/heur|mdpt |vars |cons |rows |cuts |sepa|confs|strbr|  dualbound   | primalbound  |  gap   | compl. 
  0.0s|     1 |     0 |    40 |     - |  2129k |   0 | 464 |  48 |  48 |   0 |  0 |   0 |   0 | 1.000000e+00 | 9.000000e+00 | 800.00%| unknown
 time | node  | left  |LP iter|LP it/n|mem/heur|mdpt |vars |cons |rows |cuts |sepa|confs|strbr|  dualbound   | primalbound  |  gap   | compl. 
  0.6s|     1 |     0 |   547 |     - |  5909k |   0 |1875 |  48 |  48 |   0 |  0 |   0 |   0 | 8.000000e+00 | 9.000000e+00 |  12.50%| unknown
 time | node  | left  |LP iter|LP it/n|mem/heur|mdpt |vars |cons |rows |cuts |sepa|confs|strbr|  dualbound   | primalbound  |  gap   | compl. 
  0.9s|     1 |     2 |  1297 |     - |  6460k |   0 |1875 |  48 |  48 |   0 |  1 |   0 |   0 | 8.000000e+00 | 9.000000e+00 |  12.50%| unknown
 time | node  | left  |LP iter|LP it/n|mem/heur|mdpt |vars |cons |rows |cuts |sepa|confs|strbr|  dualbound   | primalbound  |  gap   | compl. 
  0.9s|     2 |     3 |  1326 |  29.0 |  6548k |   1 |1875 |  48 |  48 |   0 |  1 |   0 |   0 | 8.000000e+00 | 9.000000e+00 |  12.50%| unknown
 time | node  | left  |LP iter|LP it/n|mem/heur|mdpt |vars |cons |rows |cuts |sepa|confs|strbr|  dualbound   | primalbound  |  gap   | compl. 
  0.9s|     3 |     4 |  1352 |  27.5 |  6621k |   2 |1875 |  48 |  48 |   0 |  1 |   0 |   0 | 8.000000e+00 | 9.000000e+00 |  12.50%| unknown
 time | node  | left  |LP iter|LP it/n|mem/heur|mdpt |vars |cons |rows |cuts |sepa|confs|strbr|  dualbound   | primalbound  |  gap   | compl. 
  1.0s|     4 |     5 |  1370 |  24.3 |  6837k |   2 |1875 |  48 |  48 |   0 |  1 |   0 |   0 | 8.000000e+00 | 9.000000e+00 |  12.50%| unknown
 time | node  | left  |LP iter|LP it/n|mem/heur|mdpt |vars |cons |rows |cuts |sepa|confs|strbr|  dualbound   | primalbound  |  gap   | compl. 
  1.0s|     5 |     6 |  1390 |  23.2 |  6859k |   3 |1875 |  48 |  48 |   0 |  1 |   0 |   0 | 8.000000e+00 | 9.000000e+00 |  12.50%| unknown
 time | node  | left  |LP iter|LP it/n|mem/heur|mdpt |vars |cons |rows |cuts |sepa|confs|strbr|  dualbound   | primalbound  |  gap   | compl. 
  1.1s|     6 |     7 |  1397 |  20.0 |  6862k |   4 |1875 |  48 |  48 |   0 |  1 |   0 |   0 | 8.000000e+00 | 9.000000e+00 |  12.50%| unknown
 time | node  | left  |LP iter|LP it/n|mem/heur|mdpt |vars |cons |rows |cuts |sepa|confs|strbr|  dualbound   | primalbound  |  gap   | compl. 
  1.1s|     7 |     8 |  1424 |  21.2 |  6862k |   5 |1875 |  48 |  48 |   0 |  1 |   0 |   0 | 8.000000e+00 | 9.000000e+00 |  12.50%| unknown
 time | node  | left  |LP iter|LP it/n|mem/heur|mdpt |vars |cons |rows |cuts |sepa|confs|strbr|  dualbound   | primalbound  |  gap   | compl. 
  1.2s|     8 |     9 |  1429 |  18.9 |  6863k |   6 |1875 |  48 |  48 |   0 |  1 |   0 |   0 | 8.000000e+00 | 9.000000e+00 |  12.50%| unknown
 time | node  | left  |LP iter|LP it/n|mem/heur|mdpt |vars |cons |rows |cuts |sepa|confs|strbr|  dualbound   | primalbound  |  gap   | compl. 
  1.3s|     9 |    10 |  1460 |  20.4 |  6865k |   7 |1875 |  48 |  48 |   0 |  1 |   0 |   0 | 8.000000e+00 | 9.000000e+00 |  12.50%| unknown
 time | node  | left  |LP iter|LP it/n|mem/heur|mdpt |vars |cons |rows |cuts |sepa|confs|strbr|  dualbound   | primalbound  |  gap   | compl. 
  1.4s|    10 |    11 |  1487 |  21.1 |  7127k |   7 |1875 |  48 |  48 |   0 |  1 |   0 |   0 | 8.000000e+00 | 9.000000e+00 |  12.50%| unknown
 time | node  | left  |LP iter|LP it/n|mem/heur|mdpt |vars |cons |rows |cuts |sepa|confs|strbr|  dualbound   | primalbound  |  gap   | compl. 
  1.5s|    11 |    12 |  1522 |  22.5 |  7133k |   8 |1875 |  48 |  48 |   0 |  1 |   0 |   0 | 8.000000e+00 | 9.000000e+00 |  12.50%| unknown
 time | node  | left  |LP iter|LP it/n|mem/heur|mdpt |vars |cons |rows |cuts |sepa|confs|strbr|  dualbound   | primalbound  |  gap   | compl. 
  1.6s|    12 |    13 |  1531 |  21.3 |  7134k |   8 |1875 |  48 |  48 |   0 |  1 |   0 |   0 | 8.000000e+00 | 9.000000e+00 |  12.50%| unknown
 time | node  | left  |LP iter|LP it/n|mem/heur|mdpt |vars |cons |rows |cuts |sepa|confs|strbr|  dualbound   | primalbound  |  gap   | compl. 
  1.8s|    13 |    14 |  1555 |  21.5 |  7138k |   9 |1875 |  48 |  48 |   0 |  1 |   0 |   0 | 8.000000e+00 | 9.000000e+00 |  12.50%| unknown
 time | node  | left  |LP iter|LP it/n|mem/heur|mdpt |vars |cons |rows |cuts |sepa|confs|strbr|  dualbound   | primalbound  |  gap   | compl. 
  1.9s|    14 |    15 |  1585 |  22.2 |  7142k |  10 |1875 |  48 |  48 |   0 |  1 |   0 |   0 | 8.000000e+00 | 9.000000e+00 |  12.50%| unknown
 time | node  | left  |LP iter|LP it/n|mem/heur|mdpt |vars |cons |rows |cuts |sepa|confs|strbr|  dualbound   | primalbound  |  gap   | compl. 
  2.1s|    15 |    16 |  1776 |  34.2 |  7252k |  11 |1875 |  48 |  48 |   0 |  1 |   0 |   0 | 8.000000e+00 | 9.000000e+00 |  12.50%| unknown
 time | node  | left  |LP iter|LP it/n|mem/heur|mdpt |vars |cons |rows |cuts |sepa|confs|strbr|  dualbound   | primalbound  |  gap   | compl. 
  2.3s|    16 |    17 |  1909 |  40.8 |  8467k |  11 |2041 |  48 |  48 |   0 |  1 |   0 |   0 | 8.000000e+00 | 9.000000e+00 |  12.50%| unknown
 time | node  | left  |LP iter|LP it/n|mem/heur|mdpt |vars |cons |rows |cuts |sepa|confs|strbr|  dualbound   | primalbound  |  gap   | compl. 
  2.9s|    17 |    16 |  1974 |  42.3 |  8586k |  11 |2086 |  48 |  48 |   0 |  0 |   0 |   0 | 8.000000e+00 | 9.000000e+00 |  12.50%| unknown
 time | node  | left  |LP iter|LP it/n|mem/heur|mdpt |vars |cons |rows |cuts |sepa|confs|strbr|  dualbound   | primalbound  |  gap   | compl. 
  3.1s|    18 |    15 |  1998 |  41.2 |  8655k |  11 |2086 |  48 |  48 |   0 |  0 |   0 |   0 | 8.000000e+00 | 9.000000e+00 |  12.50%| unknown
 time | node  | left  |LP iter|LP it/n|mem/heur|mdpt |vars |cons |rows |cuts |sepa|confs|strbr|  dualbound   | primalbound  |  gap   | compl. 
  3.3s|    19 |    16 |  2043 |  41.4 |  8671k |  11 |2086 |  48 |  48 |   0 |  1 |   0 |   0 | 8.000000e+00 | 9.000000e+00 |  12.50%| unknown
 time | node  | left  |LP iter|LP it/n|mem/heur|mdpt |vars |cons |rows |cuts |sepa|confs|strbr|  dualbound   | primalbound  |  gap   | compl. 
  3.5s|    20 |    17 |  2144 |  44.6 |  8883k |  11 |2214 |  48 |  48 |   0 |  1 |   0 |   0 | 8.000000e+00 | 9.000000e+00 |  12.50%| unknown
 time | node  | left  |LP iter|LP it/n|mem/heur|mdpt |vars |cons |rows |cuts |sepa|confs|strbr|  dualbound   | primalbound  |  gap   | compl. 
  3.7s|    21 |    18 |  2164 |  43.4 |  8885k |  11 |2214 |  48 |  48 |   0 |  1 |   0 |   0 | 8.000000e+00 | 9.000000e+00 |  12.50%| unknown
 time | node  | left  |LP iter|LP it/n|mem/heur|mdpt |vars |cons |rows |cuts |sepa|confs|strbr|  dualbound   | primalbound  |  gap   | compl. 
  4.0s|    22 |    19 |  2265 |  46.1 |  9650k |  12 |2289 |  48 |  48 |   0 |  1 |   0 |   0 | 8.000000e+00 | 9.000000e+00 |  12.50%| unknown
 time | node  | left  |LP iter|LP it/n|mem/heur|mdpt |vars |cons |rows |cuts |sepa|confs|strbr|  dualbound   | primalbound  |  gap   | compl. 
  4.2s|    23 |    20 |  2396 |  50.0 |  9765k |  12 |2432 |  48 |  48 |   0 |  1 |   0 |   0 | 8.000000e+00 | 9.000000e+00 |  12.50%| unknown
 time | node  | left  |LP iter|LP it/n|mem/heur|mdpt |vars |cons |rows |cuts |sepa|confs|strbr|  dualbound   | primalbound  |  gap   | compl. 
  4.5s|    24 |    21 |  2401 |  48.0 |  9782k |  12 |2432 |  48 |  48 |   0 |  1 |   0 |   0 | 8.000000e+00 | 9.000000e+00 |  12.50%| unknown
 time | node  | left  |LP iter|LP it/n|mem/heur|mdpt |vars |cons |rows |cuts |sepa|confs|strbr|  dualbound   | primalbound  |  gap   | compl. 
  4.8s|    25 |    22 |  2459 |  48.4 |    10M |  12 |2501 |  48 |  48 |   0 |  1 |   0 |   0 | 8.000000e+00 | 9.000000e+00 |  12.50%| unknown
 time | node  | left  |LP iter|LP it/n|mem/heur|mdpt |vars |cons |rows |cuts |sepa|confs|strbr|  dualbound   | primalbound  |  gap   | compl. 
  5.5s|    26 |    21 |  2582 |  51.4 |    11M |  13 |2644 |  48 |  48 |   0 |  0 |   0 |   0 | 8.000000e+00 | 9.000000e+00 |  12.50%| unknown
 time | node  | left  |LP iter|LP it/n|mem/heur|mdpt |vars |cons |rows |cuts |sepa|confs|strbr|  dualbound   | primalbound  |  gap   | compl. 
  6.4s|    27 |    20 |  2693 |  53.7 |    11M |  13 |2699 |  48 |  48 |   0 |  0 |   0 |   0 | 8.000000e+00 | 9.000000e+00 |  12.50%| unknown
 time | node  | left  |LP iter|LP it/n|mem/heur|mdpt |vars |cons |rows |cuts |sepa|confs|strbr|  dualbound   | primalbound  |  gap   | compl. 
  6.7s|    28 |    19 |  2724 |  52.9 |    11M |  13 |2701 |  48 |  48 |   0 |  0 |   0 |   0 | 8.000000e+00 | 9.000000e+00 |  12.50%| unknown
 time | node  | left  |LP iter|LP it/n|mem/heur|mdpt |vars |cons |rows |cuts |sepa|confs|strbr|  dualbound   | primalbound  |  gap   | compl. 
  6.9s|    29 |    20 |  2785 |  53.1 |    11M |  13 |2701 |  48 |  48 |   0 |  1 |   0 |   0 | 8.000000e+00 | 9.000000e+00 |  12.50%| unknown
 time | node  | left  |LP iter|LP it/n|mem/heur|mdpt |vars |cons |rows |cuts |sepa|confs|strbr|  dualbound   | primalbound  |  gap   | compl. 
  7.2s|    30 |    21 |  2794 |  51.6 |    11M |  14 |2701 |  48 |  48 |   0 |  1 |   0 |   0 | 8.000000e+00 | 9.000000e+00 |  12.50%| unknown
 time | node  | left  |LP iter|LP it/n|mem/heur|mdpt |vars |cons |rows |cuts |sepa|confs|strbr|  dualbound   | primalbound  |  gap   | compl. 
  7.4s|    31 |    22 |  2798 |  50.0 |    11M |  15 |2701 |  48 |  48 |   0 |  1 |   0 |   0 | 8.000000e+00 | 9.000000e+00 |  12.50%| unknown
 time | node  | left  |LP iter|LP it/n|mem/heur|mdpt |vars |cons |rows |cuts |sepa|confs|strbr|  dualbound   | primalbound  |  gap   | compl. 
r 7.7s|    32 |     0 |  2858 |  50.4 |simplero|  16 |2735 |  48 |  48 |   0 |  0 |   0 |   0 | 8.000000e+00 | 8.000000e+00 |   0.00%| 100.00%

SCIP Status        : problem is solved [optimal solution found]
Solving Time (sec) : 7.65
Solving Nodes      : 32
Primal Bound       : +8.00000000000000e+00 (6 solutions)
Dual Bound         : +8.00000000000000e+00
Gap                : 0.00 %
Running with parallel: True bidir: True symbreak: True
Number of Nodes:  48
48.03512008101852% holds
starting cheapest insertion heuristic
Heuristic without TSP improvement:  10
Heuristic without TSP improvement time:  0.1
Heuristic Sol:  9
Heuristic total time:  0.1
[[0, 33, 46, 38], [12, 39, 22, 5, 6, 9, 8], [47, 16, 25, 24, 31, 40, 13, 36, 3], [45, 37, 34, 21, 7], [44, 15, 18, 19, 2, 1, 14, 29], [43, 42, 26], [41, 32, 30, 27], [35, 11, 17, 23, 4], [28, 10, 20]]
Instance path:  /home/htc/mghannam/SCRATCH/lccp-rust/data/t84_gr48.npcc
Timelimit:  7200
Heuristic without TSP improvement:  10
Heuristic without TSP improvement time:  0.1
Heuristic Sol:  9
Heuristic total time:  0.3
at 1 zero_duals: 39
at1, LP obj: 9.0 n_added_paths: 407
at 1 zero_duals: 28
at1, LP obj: 9.0 n_added_paths: 144
at 1 zero_duals: 16
at1, LP obj: 9.0 n_added_paths: 466
at 1 zero_duals: 19
at1, LP obj: 8.75 n_added_paths: 365
at 1 zero_duals: 3
at1, LP obj: 8.483414418398938 n_added_paths: 259
at 1 zero_duals: 5
at1, LP obj: 7.75 n_added_paths: 104
at 1 zero_duals: 6
at1, LP obj: 7.633333333333334 n_added_paths: 35
at 1 zero_duals: 2
at1, LP obj: 7.614035087719299 n_added_paths: 16
at 1 zero_duals: 2
at1, LP obj: 7.57463734206832 n_added_paths: 17
at 1 zero_duals: 3
Switching to elementary pricing
at1, LP obj: 7.5625 n_added_paths: 5
updated lowerbound from 1.0 to 8
Gap too small = 0, stopping pricing with lb = 8
Gap too small = 0, stopping pricing with lb = 8
Gap too small = 0, stopping pricing with lb = 8
Gap too small = 0, stopping pricing with lb = 8
Gap too small = 0, stopping pricing with lb = 8
Gap too small = 0, stopping pricing with lb = 8
Gap too small = 0, stopping pricing with lb = 8
Gap too small = 0, stopping pricing with lb = 8
Gap too small = 0, stopping pricing with lb = 8
Gap too small = 0, stopping pricing with lb = 8
Gap too small = 0, stopping pricing with lb = 8
Gap too small = 0, stopping pricing with lb = 8
Gap too small = 0, stopping pricing with lb = 8
Gap too small = 0, stopping pricing with lb = 8
Gap too small = 0, stopping pricing with lb = 8
at 27 zero_duals: 13
at27, LP obj: 8.252032520325203 n_added_paths: 166
Gap too small = 0, stopping pricing with lb = 8
at 32 zero_duals: 11
Switching to elementary pricing
at32, LP obj: 8.175 n_added_paths: 41
at 32 zero_duals: 10
Switching to elementary pricing
at32, LP obj: 8.106299212598426 n_added_paths: 4
updated lowerbound from 8.0 to 9
at 33 zero_duals: 47
Switching to elementary pricing
at33, LP obj: 1e+20 n_added_paths: 0
updated lowerbound from 8.0 to 100000000000000000000
Gap too small = 0, stopping pricing with lb = 8
at 34 zero_duals: 8
at34, LP obj: 8.047619047619047 n_added_paths: 128
Gap too small = 0, stopping pricing with lb = 8
Gap too small = 0, stopping pricing with lb = 8
at 38 zero_duals: 14
at38, LP obj: 8.055555555555555 n_added_paths: 75
Gap too small = 0, stopping pricing with lb = 8
at 35 zero_duals: 7
at35, LP obj: 8.22029576746558 n_added_paths: 143
Gap too small = 0, stopping pricing with lb = 8
Gap too small = 0, stopping pricing with lb = 8
at 44 zero_duals: 12
Switching to elementary pricing
at44, LP obj: 8.142857142857142 n_added_paths: 69
Gap too small = 0, stopping pricing with lb = 8
at 46 zero_duals: 6
Switching to elementary pricing
at46, LP obj: 8.11875 n_added_paths: 133
at 46 zero_duals: 6
Switching to elementary pricing
at46, LP obj: 8.058064516129033 n_added_paths: 5
at 46 zero_duals: 9
at46, LP obj: 8.044642857142858 n_added_paths: 5
at 46 zero_duals: 8
Switching to elementary pricing
at46, LP obj: 8.030864197530864 n_added_paths: 0
updated lowerbound from 8.0 to 9
at 45 zero_duals: 10
at45, LP obj: 8.17578125 n_added_paths: 37
at 45 zero_duals: 8
at45, LP obj: 8.153846153846153 n_added_paths: 3
at 45 zero_duals: 8
Switching to elementary pricing
at45, LP obj: 8.15 n_added_paths: 6
at 45 zero_duals: 8
Switching to elementary pricing
at45, LP obj: 8.15 n_added_paths: 7
at 45 zero_duals: 7
Switching to elementary pricing
at45, LP obj: 8.142857142857142 n_added_paths: 2
updated lowerbound from 8.0 to 9
at 43 zero_duals: 46
Switching to elementary pricing
at43, LP obj: 1e+20 n_added_paths: 1
updated lowerbound from 8.0 to 100000000000000000000
at 43 zero_duals: 46
Switching to elementary pricing
at43, LP obj: 1e+20 n_added_paths: 1
updated lowerbound from 8.0 to 100000000000000000000
at 43 zero_duals: 47
Switching to elementary pricing
at43, LP obj: 1e+20 n_added_paths: 0
updated lowerbound from 8.0 to 100000000000000000000
Gap too small = 0, stopping pricing with lb = 8
Gap too small = 0, stopping pricing with lb = 8
Gap too small = 0, stopping pricing with lb = 8
at 52 zero_duals: 6
at52, LP obj: 8.060975609756097 n_added_paths: 34
Best solution found:
[39, 35, 5, 8, 12, 39] 1.0 1.0
checking cycle [39, 35, 5, 8, 12, 39]
[39, 35, 5, 8, 12, 39] 819 699
[46, 38, 33, 20, 10, 46] 1.0 1.0
checking cycle [46, 38, 33, 20, 10, 46]
[46, 38, 33, 20, 10, 46] 651 616
[32, 27, 16, 25, 0, 32] 1.0 1.0
checking cycle [32, 27, 16, 25, 0, 32]
[32, 27, 16, 25, 0, 32] 911 792
[45, 30, 28, 37, 34, 45] 1.0 1.0
checking cycle [45, 30, 28, 37, 34, 45]
[45, 30, 28, 37, 34, 45] 677 636
[47, 24, 40, 31, 43, 26, 13, 36, 3, 47] 1.0 1.0
checking cycle [47, 24, 40, 31, 43, 26, 13, 36, 3, 47]
[47, 24, 40, 31, 43, 26, 13, 36, 3, 47] 636 626
[41, 7, 21, 9, 2, 41] 1.0 1.0
checking cycle [41, 7, 21, 9, 2, 41]
[41, 7, 21, 9, 2, 41] 792 784
[44, 1, 15, 18, 19, 42, 44] 1.0 1.0
checking cycle [44, 1, 15, 18, 19, 42, 44]
[44, 1, 15, 18, 19, 42, 44] 748 545
[29, 14, 6, 22, 4, 23, 17, 11, 29] 1.0 1.0
checking cycle [29, 14, 6, 22, 4, 23, 17, 11, 29]
[29, 14, 6, 22, 4, 23, 17, 11, 29] 967 960
